c read Graph
c width = 107
c time = 73 ms
c width = 14
c time = 129 ms
c width = 13
c time = 176 ms
c width = 12
c time = 196 ms
c width = 11
c time = 444 ms
c width = 10
c time = 1779 ms
c width = 10
c time = 4989 ms
s td 109 11 120
b 1 1 2 13
b 2 2 3 13 14
b 3 10 11 23 24
b 4 3 13 14 25
b 5 10 23 24 36
b 6 85 97 98 110
b 7 96 107 108 119
b 8 85 98 110 111
b 9 96 107 118 119
b 10 3 4 5 16
b 11 3 5 15 16 26 37
b 12 3 15 25 26 37
b 13 3 14 15 25 26
b 14 5 15 16 26 28 37 39
b 15 15 26 27 28 39
b 16 5 16 26 28 37 39 50
b 17 26 37 38 39 50
b 18 5 16 28 37 39 50 61
b 19 5 16 18 28 29 39 50 61
b 20 5 18 28 29 39 42 50 52 53 61
b 21 28 29 39 41 42 52 53
b 22 28 39 40 41 52
b 23 5 18 29 39 42 50 52 53 61 63
b 24 39 50 51 52 63
b 25 5 18 29 42 50 52 53 61 63 64
b 26 5 18 29 42 50 53 61 63 64 74
b 27 50 61 62 63 74
b 28 5 18 29 31 42 53 61 63 64 74
b 29 5 18 31 42 53 61 63 64 74 85
b 30 5 18 31 42 53 63 64 74 75 85
b 31 5 18 31 42 53 64 74 75 85 86
b 32 61 73 74 85
b 33 18 29 30 31 42
b 34 5 16 17 18 29
b 35 37 49 50 61
b 36 5 9 18 20 31 42 53 64 75 85 86
b 37 9 20 31 42 53 64 75 85 86 99 112
b 38 9 20 31 42 53 64 75 86 88 99 112
b 39 9 20 31 42 53 64 75 76 88 99 112
b 40 9 20 31 42 53 64 76 77 88 99 112
b 41 9 20 31 42 53 64 66 77 88 99 112
b 42 9 20 31 42 53 55 66 77 88 99 112
b 43 9 20 31 42 44 55 66 77 88 99 112
b 44 9 20 31 33 44 55 66 77 88 99 112
b 45 9 20 33 44 55 66 77 88 99 101 112
b 46 9 20 33 44 55 66 77 88 90 101 112
b 47 9 20 33 44 55 66 77 79 90 101 112
b 48 9 20 33 44 55 66 68 79 90 101 112
b 49 9 20 33 44 55 57 68 79 90 101 112
b 50 9 20 33 44 46 57 68 79 90 101 112
b 51 9 20 33 46 57 68 79 90 101 112 113
b 52 9 20 33 46 57 68 79 90 101 113 114
b 53 9 20 33 46 57 68 79 90 101 103 114
b 54 9 20 33 46 57 68 79 90 92 103 114
b 55 9 20 33 46 57 68 79 81 92 103 114
b 56 9 20 33 46 57 68 70 81 92 103 114
b 57 9 20 33 46 57 59 70 81 92 103 114
b 58 9 20 33 46 48 59 70 81 92 103 114
b 59 48 59 70 72 81 92 103 114
b 60 59 70 72 81 92 103 114 116
b 61 5 7 9 18 20 31
b 62 5 6 7 18
b 63 7 8 9 20
b 64 7 18 19 20 31
b 65 59 70 72 81 92 103 105 116
b 66 59 70 72 81 83 92 105 116
b 67 59 70 71 72 83
b 68 70 72 81 83 92 94 105 116
b 69 70 81 82 83 94
b 70 72 83 94 105 116 118
b 71 105 116 117 118
b 72 72 83 94 105 106 118
b 73 72 83 94 96 106 118
b 74 72 83 84 96
b 75 83 94 95 96 106 118
b 76 95 96 106 107 118
b 77 81 92 93 94 105
b 78 92 103 104 105 116
b 79 57 68 69 70 81
b 80 103 114 115 116
b 81 33 44 45 46 57
b 82 9 20 33 35 46 48 59
b 83 35 46 47 48 59
b 84 9 20 22 33 35 46 48
b 85 9 22 35 36 48
b 86 9 10 22 35 36
b 87 10 22 23 35 36
b 88 9 20 21 22 33
b 89 22 33 34 35 46
b 90 48 59 60 72
b 91 20 31 32 33 44
b 92 46 57 58 59 70
b 93 79 90 91 92 103
b 94 68 79 80 81 92
b 95 90 101 102 103 114
b 96 44 55 56 57 68
b 97 55 66 67 68 79
b 98 88 99 100 101 112
b 99 85 86 99 111 112
b 100 85 86 98 99 111
b 101 75 86 87 88 99
b 102 77 88 89 90 101
b 103 42 53 54 55 66
b 104 66 77 78 79 90
b 105 53 64 65 66 77
b 106 31 42 43 44 55
b 107 108 119 120
b 108 97 109 110
b 109 11 12 24
1 2
2 4
3 109
3 5
4 13
5 87
6 108
6 8
7 107
7 9
8 100
9 76
10 11
11 14
11 12
12 13
14 16
14 15
16 18
16 17
18 35
18 19
19 34
19 20
20 23
20 21
21 22
23 25
23 24
25 26
26 28
26 27
28 33
28 29
29 32
29 30
30 31
31 36
36 61
36 37
37 99
37 38
38 101
38 39
39 40
40 41
41 105
41 42
42 103
42 43
43 106
43 44
44 91
44 45
45 98
45 46
46 102
46 47
47 104
47 48
48 97
48 49
49 96
49 50
50 81
50 51
51 52
52 53
53 95
53 54
54 93
54 55
55 94
55 56
56 79
56 57
57 92
57 58
58 82
58 59
59 90
59 60
60 80
60 65
61 63
61 64
61 62
65 66
65 78
66 67
66 68
68 77
68 69
68 70
70 72
70 71
72 73
73 75
73 74
75 76
82 84
82 83
84 89
84 85
84 88
85 86
86 87
99 100
